1 1 1 1 1 1 1 0 0 1 
0 8 31 22 7 27 15 34 12 37 
8 0 19 15 24 25 6 9 29 18 
31 19 0 29 6 32 19 20 28 7 
22 15 29 0 35 29 21 22 23 39 
7 24 6 35 0 14 9 35 36 8 
27 25 32 29 14 0 15 23 40 29 
15 6 19 21 9 15 0 27 40 15 
34 9 20 22 35 23 27 0 15 8 
12 29 28 23 36 40 40 15 0 7 
37 18 7 39 8 29 15 8 7 0 
2 3
1P 2P 8B 6P 7P 4P 9B 10P 3P 5P = 126